objective value:                   -0.934136760834737
h-1,13                                           0.01 	(obj:0)
h-1,37                                           0.01 	(obj:0)
h-1,38                                           0.01 	(obj:0)
h-1,39                                           0.01 	(obj:0)
h-1,47                                           0.01 	(obj:0)
h-1,48                                           0.01 	(obj:0)
h-1,49                                           0.01 	(obj:0)
h-1,62                                           0.01 	(obj:0)
h-1,65                                           0.01 	(obj:0)
h-1,66                                           0.01 	(obj:0)
h-1,67                                           0.01 	(obj:0)
h-1,68                                           0.01 	(obj:0)
h-1,69                                           0.01 	(obj:0)
h-1,70                                           0.01 	(obj:0)
h-1,71                                           0.01 	(obj:0)
h-1,72                                           0.01 	(obj:0)
h-1,73                                           0.01 	(obj:0)
h-1,74                                           0.01 	(obj:0)
h-1,75                                           0.01 	(obj:0)
h-1,76                                           0.01 	(obj:0)
h-1,77                                           0.01 	(obj:0)
h-1,78                                           0.01 	(obj:0)
h-1,79                                           0.01 	(obj:0)
h-1,80                                           0.01 	(obj:0)
h-1,81                                           0.01 	(obj:0)
h-1,89                                           0.01 	(obj:0)
h-1,90                                           0.01 	(obj:0)
h-1,91                                           0.01 	(obj:0)
h-1,92                                           0.01 	(obj:0)
h-1,93                                           0.01 	(obj:0)
h-1,94                                           0.01 	(obj:0)
h-1,95                                           0.01 	(obj:0)
h-1,96                                           0.01 	(obj:0)
h-1,97                                           0.01 	(obj:0)
h-1,98                                           0.01 	(obj:0)
h-1,99                                           0.01 	(obj:0)
h-1,100                                          0.01 	(obj:0)
h-1,101                                          0.01 	(obj:0)
h-1,102                                          0.01 	(obj:0)
h-1,103                                          0.01 	(obj:0)
h-1,104                                          0.01 	(obj:0)
h-1,105                                          0.01 	(obj:0)
h-1,106                                          0.01 	(obj:0)
h-1,107                                          0.01 	(obj:0)
h-1,109                                          0.01 	(obj:0)
h-1,113                                          0.01 	(obj:0)
h-1,117                                          0.01 	(obj:0)
h-1,118                                          0.01 	(obj:0)
h-1,119                                          0.01 	(obj:0)
h-1,120                                          0.01 	(obj:0)
h-1,121                                          0.01 	(obj:0)
h-1,122                                          0.01 	(obj:0)
h-1,123                                          0.01 	(obj:0)
h-1,124                                          0.01 	(obj:0)
h-1,125                                          0.01 	(obj:0)
h-1,128                             0.139019613862038 	(obj:0)
h-1,129                                             1 	(obj:0)
h-1,130                             0.437450984716415 	(obj:0)
h-1,131                                          0.01 	(obj:0)
h-1,132                                          0.01 	(obj:0)
h-1,137                                          0.01 	(obj:0)
h-1,145                                          0.01 	(obj:0)
h-1,146                                          0.01 	(obj:0)
h-1,147                                          0.01 	(obj:0)
h-1,148                                          0.01 	(obj:0)
h-1,149                                          0.01 	(obj:0)
h-1,150                                          0.01 	(obj:0)
h-1,156                             0.331176480054855 	(obj:0)
h-1,157                             0.978235294818878 	(obj:0)
h-1,158                             0.311568638086319 	(obj:0)
h-1,165                                          0.01 	(obj:0)
h-1,170                                          0.01 	(obj:0)
h-1,172                                          0.01 	(obj:0)
h-1,174                                          0.01 	(obj:0)
h-1,175                                          0.01 	(obj:0)
h-1,176                                          0.01 	(obj:0)
h-1,177                                          0.01 	(obj:0)
h-1,178                                          0.01 	(obj:0)
h-1,179                                          0.01 	(obj:0)
h-1,184                             0.519411792755127 	(obj:0)
h-1,185                             0.935098042488098 	(obj:0)
h-1,195                                          0.01 	(obj:0)
h-1,197                                          0.01 	(obj:0)
h-1,198                                          0.01 	(obj:0)
h-1,199                                          0.01 	(obj:0)
h-1,200                                          0.01 	(obj:0)
h-1,201                                          0.01 	(obj:0)
h-1,202                                          0.01 	(obj:0)
h-1,203                                          0.01 	(obj:0)
h-1,204                                          0.01 	(obj:0)
h-1,205                                          0.01 	(obj:0)
h-1,206                                          0.01 	(obj:0)
h-1,207                                          0.01 	(obj:0)
h-1,208                                          0.01 	(obj:0)
h-1,209                                          0.01 	(obj:0)
h-1,210                                          0.01 	(obj:0)
h-1,211                             0.186470592617989 	(obj:0)
h-1,212                              0.96686274766922 	(obj:0)
h-1,213                             0.598235318660736 	(obj:0)
h-1,214                                          0.01 	(obj:0)
h-1,223                                          0.01 	(obj:0)
h-1,225                                          0.01 	(obj:0)
h-1,226                                          0.01 	(obj:0)
h-1,227                                          0.01 	(obj:0)
h-1,228                                          0.01 	(obj:0)
h-1,229                                          0.01 	(obj:0)
h-1,230                                          0.01 	(obj:0)
h-1,231                                          0.01 	(obj:0)
h-1,232                                          0.01 	(obj:0)
h-1,233                                          0.01 	(obj:0)
h-1,234                                          0.01 	(obj:0)
h-1,235                                          0.01 	(obj:0)
h-1,236                                          0.01 	(obj:0)
h-1,237                                          0.01 	(obj:0)
h-1,238                                          0.01 	(obj:0)
h-1,239                             0.339411774873734 	(obj:0)
h-1,240                                             1 	(obj:0)
h-1,241                              0.25705882370472 	(obj:0)
h-1,251                                          0.01 	(obj:0)
h-1,253                                          0.01 	(obj:0)
h-1,254                                          0.01 	(obj:0)
h-1,255                                          0.01 	(obj:0)
h-1,256                                          0.01 	(obj:0)
h-1,257                                          0.01 	(obj:0)
h-1,258                                          0.01 	(obj:0)
h-1,259                                          0.01 	(obj:0)
h-1,260                                          0.01 	(obj:0)
h-1,261                                          0.01 	(obj:0)
h-1,262                                          0.01 	(obj:0)
h-1,263                                          0.01 	(obj:0)
h-1,264                                          0.01 	(obj:0)
h-1,265                                          0.01 	(obj:0)
h-1,266                                          0.01 	(obj:0)
h-1,267                             0.802156875133514 	(obj:0)
h-1,268                             0.884509811401367 	(obj:0)
h-1,269                            0.0531372560560703 	(obj:0)
h-1,270                                          0.01 	(obj:0)
h-1,271                                          0.01 	(obj:0)
h-1,272                                          0.01 	(obj:0)
h-1,273                                          0.01 	(obj:0)
h-1,281                                          0.01 	(obj:0)
h-1,282                                          0.01 	(obj:0)
h-1,283                                          0.01 	(obj:0)
h-1,284                                          0.01 	(obj:0)
h-1,285                                          0.01 	(obj:0)
h-1,286                                          0.01 	(obj:0)
h-1,287                                          0.01 	(obj:0)
h-1,288                                          0.01 	(obj:0)
h-1,289                                          0.01 	(obj:0)
h-1,290                                          0.01 	(obj:0)
h-1,291                                          0.01 	(obj:0)
h-1,292                                          0.01 	(obj:0)
h-1,293                                          0.01 	(obj:0)
h-1,294                             0.135490203499794 	(obj:0)
h-1,295                                             1 	(obj:0)
h-1,296                             0.857058832645416 	(obj:0)
h-1,297                                          0.01 	(obj:0)
h-1,298                                          0.01 	(obj:0)
h-1,299                                          0.01 	(obj:0)
h-1,300                                          0.01 	(obj:0)
h-1,301                                          0.01 	(obj:0)
h-1,302                                          0.01 	(obj:0)
h-1,309                                          0.01 	(obj:0)
h-1,310                                          0.01 	(obj:0)
h-1,311                                          0.01 	(obj:0)
h-1,312                                          0.01 	(obj:0)
h-1,313                                          0.01 	(obj:0)
h-1,314                                          0.01 	(obj:0)
h-1,315                                          0.01 	(obj:0)
h-1,316                                          0.01 	(obj:0)
h-1,317                                          0.01 	(obj:0)
h-1,318                                          0.01 	(obj:0)
h-1,319                                          0.01 	(obj:0)
h-1,320                                          0.01 	(obj:0)
h-1,321                                          0.01 	(obj:0)
h-1,322                             0.362549027204514 	(obj:0)
h-1,323                             0.986078431606293 	(obj:0)
h-1,324                             0.774705896377563 	(obj:0)
h-1,325                                          0.01 	(obj:0)
h-1,326                                          0.01 	(obj:0)
h-1,327                                          0.01 	(obj:0)
h-1,328                                          0.01 	(obj:0)
h-1,329                                          0.01 	(obj:0)
h-1,330                                          0.01 	(obj:0)
h-1,331                                          0.01 	(obj:0)
h-1,337                                          0.01 	(obj:0)
h-1,338                                          0.01 	(obj:0)
h-1,339                                          0.01 	(obj:0)
h-1,340                                          0.01 	(obj:0)
h-1,341                                          0.01 	(obj:0)
h-1,342                                          0.01 	(obj:0)
h-1,343                                          0.01 	(obj:0)
h-1,350                             0.539019634723663 	(obj:0)
h-1,351                             0.986078431606293 	(obj:0)
h-1,352                             0.311960796117783 	(obj:0)
h-1,353                                          0.01 	(obj:0)
h-1,354                                          0.01 	(obj:0)
h-1,355                                          0.01 	(obj:0)
h-1,356                                          0.01 	(obj:0)
h-1,357                                          0.01 	(obj:0)
h-1,358                                          0.01 	(obj:0)
h-1,359                                          0.01 	(obj:0)
h-1,360                                          0.01 	(obj:0)
h-1,361                                          0.01 	(obj:0)
h-1,365                                          0.01 	(obj:0)
h-1,366                                          0.01 	(obj:0)
h-1,367                                          0.01 	(obj:0)
h-1,368                                          0.01 	(obj:0)
h-1,369                                          0.01 	(obj:0)
h-1,370                                          0.01 	(obj:0)
h-1,377                             0.213529413342476 	(obj:0)
h-1,378                             0.919411768913269 	(obj:0)
h-1,379                             0.793921580314636 	(obj:0)
h-1,380                            0.0413725508749485 	(obj:0)
h-1,381                                          0.01 	(obj:0)
h-1,382                                          0.01 	(obj:0)
h-1,383                                          0.01 	(obj:0)
h-1,384                                          0.01 	(obj:0)
h-1,385                                          0.01 	(obj:0)
h-1,386                                          0.01 	(obj:0)
h-1,387                                          0.01 	(obj:0)
h-1,388                                          0.01 	(obj:0)
h-1,389                                          0.01 	(obj:0)
h-1,390                                          0.01 	(obj:0)
h-1,393                                          0.01 	(obj:0)
h-1,394                                          0.01 	(obj:0)
h-1,395                                          0.01 	(obj:0)
h-1,396                                          0.01 	(obj:0)
h-1,397                                          0.01 	(obj:0)
h-1,398                                          0.01 	(obj:0)
h-1,405                             0.476274510622025 	(obj:0)
h-1,406                                          0.99 	(obj:0)
h-1,407                             0.637058844566345 	(obj:0)
h-1,408                                          0.01 	(obj:0)
h-1,409                                          0.01 	(obj:0)
h-1,410                                          0.01 	(obj:0)
h-1,411                                          0.01 	(obj:0)
h-1,412                                          0.01 	(obj:0)
h-1,413                                          0.01 	(obj:0)
h-1,414                                          0.01 	(obj:0)
h-1,415                                          0.01 	(obj:0)
h-1,416                                          0.01 	(obj:0)
h-1,417                                          0.01 	(obj:0)
h-1,422                                          0.01 	(obj:0)
h-1,423                                          0.01 	(obj:0)
h-1,424                                          0.01 	(obj:0)
h-1,425                                          0.01 	(obj:0)
h-1,426                                          0.01 	(obj:0)
h-1,427                                          0.01 	(obj:0)
h-1,433                             0.660588254928589 	(obj:0)
h-1,434                             0.986078431606293 	(obj:0)
h-1,435                             0.307647069692612 	(obj:0)
h-1,436                                          0.01 	(obj:0)
h-1,437                                          0.01 	(obj:0)
h-1,438                                          0.01 	(obj:0)
h-1,439                                          0.01 	(obj:0)
h-1,440                                          0.01 	(obj:0)
h-1,441                                          0.01 	(obj:0)
h-1,442                                          0.01 	(obj:0)
h-1,444                                          0.01 	(obj:0)
h-1,450                                          0.01 	(obj:0)
h-1,451                                          0.01 	(obj:0)
h-1,453                                          0.01 	(obj:0)
h-1,454                                          0.01 	(obj:0)
h-1,455                                          0.01 	(obj:0)
h-1,456                                          0.01 	(obj:0)
h-1,457                                          0.01 	(obj:0)
h-1,458                                          0.01 	(obj:0)
h-1,460                            0.0841176488995552 	(obj:0)
h-1,461                             0.899803926944733 	(obj:0)
h-1,462                             0.833137264251709 	(obj:0)
h-1,463                                          0.01 	(obj:0)
h-1,464                                          0.01 	(obj:0)
h-1,465                                          0.01 	(obj:0)
h-1,466                                          0.01 	(obj:0)
h-1,467                                          0.01 	(obj:0)
h-1,468                                          0.01 	(obj:0)
h-1,469                                          0.01 	(obj:0)
h-1,472                                          0.01 	(obj:0)
h-1,477                                          0.01 	(obj:0)
h-1,478                                          0.01 	(obj:0)
h-1,483                                          0.01 	(obj:0)
h-1,484                                          0.01 	(obj:0)
h-1,485                                          0.01 	(obj:0)
h-1,486                                          0.01 	(obj:0)
h-1,487                                          0.01 	(obj:0)
h-1,488                             0.480588237047195 	(obj:0)
h-1,489                             0.986078431606293 	(obj:0)
h-1,490                             0.613529434204102 	(obj:0)
h-1,491                                          0.01 	(obj:0)
h-1,492                                          0.01 	(obj:0)
h-1,493                                          0.01 	(obj:0)
h-1,494                                          0.01 	(obj:0)
h-1,500                                          0.01 	(obj:0)
h-1,501                                          0.01 	(obj:0)
h-1,502                                          0.01 	(obj:0)
h-1,503                                          0.01 	(obj:0)
h-1,506                                          0.01 	(obj:0)
h-1,513                                          0.01 	(obj:0)
h-1,514                                          0.01 	(obj:0)
h-1,515                                          0.01 	(obj:0)
h-1,516                             0.602156887054443 	(obj:0)
h-1,517                                             1 	(obj:0)
h-1,518                             0.566862771511078 	(obj:0)
h-1,519                                          0.01 	(obj:0)
h-1,528                                          0.01 	(obj:0)
h-1,529                                          0.01 	(obj:0)
h-1,530                                          0.01 	(obj:0)
h-1,533                                          0.01 	(obj:0)
h-1,534                                          0.01 	(obj:0)
h-1,544                             0.904117653369904 	(obj:0)
h-1,545                                             1 	(obj:0)
h-1,546                             0.268823543787003 	(obj:0)
h-1,558                                          0.01 	(obj:0)
h-1,562                                          0.01 	(obj:0)
h-1,571                             0.229215686917305 	(obj:0)
h-1,572                             0.994313726425171 	(obj:0)
h-1,573                                             1 	(obj:0)
h-1,574                             0.268823543787003 	(obj:0)
h-1,575                                          0.01 	(obj:0)
h-1,599                             0.562941203117371 	(obj:0)
h-1,600                                             1 	(obj:0)
h-1,601                             0.813921580314636 	(obj:0)
h-1,602                            0.0217647061124444 	(obj:0)
h-1,612                                          0.01 	(obj:0)
h-1,613                                          0.01 	(obj:0)
h-1,626                            0.0292156876623631 	(obj:0)
h-1,627                             0.833137264251709 	(obj:0)
h-1,628                             0.986078431606293 	(obj:0)
h-1,629                             0.464509805440903 	(obj:0)
h-1,640                                          0.01 	(obj:0)
h-1,641                                          0.01 	(obj:0)
h-1,654                           0.00960784383118152 	(obj:0)
h-1,655                             0.766470601558685 	(obj:0)
h-1,656                             0.680196096897125 	(obj:0)
h-1,657                            0.0292156876623631 	(obj:0)
h-1,668                                          0.01 	(obj:0)
h-1,669                                          0.01 	(obj:0)
h-1,670                                          0.01 	(obj:0)
h-1,676                                          0.01 	(obj:0)
h-1,677                                          0.01 	(obj:0)
h-1,678                                          0.01 	(obj:0)
h-1,679                                          0.01 	(obj:0)
h-1,680                                          0.01 	(obj:0)
h-1,681                                          0.01 	(obj:0)
h-1,682                                          0.01 	(obj:0)
h-1,683                                          0.01 	(obj:0)
h-1,684                                          0.01 	(obj:0)
h-1,685                                          0.01 	(obj:0)
h-1,686                                          0.01 	(obj:0)
h-1,687                                          0.01 	(obj:0)
h-1,688                                          0.01 	(obj:0)
h-1,689                                          0.01 	(obj:0)
h-1,693                                          0.01 	(obj:0)
h-1,697                                          0.01 	(obj:0)
h-1,704                                          0.01 	(obj:0)
h-1,705                                          0.01 	(obj:0)
h-1,706                                          0.01 	(obj:0)
h-1,707                                          0.01 	(obj:0)
h-1,708                                          0.01 	(obj:0)
h-1,709                                          0.01 	(obj:0)
h-1,710                                          0.01 	(obj:0)
h-1,711                                          0.01 	(obj:0)
h-1,712                                          0.01 	(obj:0)
h-1,713                                          0.01 	(obj:0)
h-1,714                                          0.01 	(obj:0)
h-1,715                                          0.01 	(obj:0)
h-1,716                                          0.01 	(obj:0)
h-1,717                                          0.01 	(obj:0)
h-1,718                                          0.01 	(obj:0)
h-1,719                                          0.01 	(obj:0)
h-1,720                                          0.01 	(obj:0)
h-1,721                                          0.01 	(obj:0)
h-1,722                                          0.01 	(obj:0)
h-1,723                                          0.01 	(obj:0)
h-1,732                                          0.01 	(obj:0)
h-1,733                                          0.01 	(obj:0)
h-1,734                                          0.01 	(obj:0)
h-1,735                                          0.01 	(obj:0)
h-1,736                                          0.01 	(obj:0)
h-1,737                                          0.01 	(obj:0)
h-1,738                                          0.01 	(obj:0)
h-1,739                                          0.01 	(obj:0)
h-1,740                                          0.01 	(obj:0)
h-1,741                                          0.01 	(obj:0)
h-1,742                                          0.01 	(obj:0)
h-1,743                                          0.01 	(obj:0)
h-1,744                                          0.01 	(obj:0)
h-1,745                                          0.01 	(obj:0)
h-1,746                                          0.01 	(obj:0)
h-1,747                                          0.01 	(obj:0)
h-1,748                                          0.01 	(obj:0)
h-1,749                                          0.01 	(obj:0)
h-1,750                                          0.01 	(obj:0)
h-1,751                                          0.01 	(obj:0)
h-1,763                                          0.01 	(obj:0)
h-1,764                                          0.01 	(obj:0)
h-1,765                                          0.01 	(obj:0)
h-1,766                                          0.01 	(obj:0)
h-1,767                                          0.01 	(obj:0)
h-1,768                                          0.01 	(obj:0)
h-1,769                                          0.01 	(obj:0)
h-1,770                                          0.01 	(obj:0)
h-1,771                                          0.01 	(obj:0)
h-1,772                                          0.01 	(obj:0)
h-1,773                                          0.01 	(obj:0)
h-1,774                                          0.01 	(obj:0)
h-1,775                                          0.01 	(obj:0)
h-1,777                                          0.01 	(obj:0)
h-1,778                                          0.01 	(obj:0)
h-1,779                                          0.01 	(obj:0)
z0,0                                -2.29655892455497 	(obj:0)
a0,0                                0.091413636843186 	(obj:0)
z0,1                                 2.20123033076878 	(obj:0)
a0,1                                0.900354187192668 	(obj:0)
z0,2                                 3.41417306209276 	(obj:0)
a0,2                                0.968143971621035 	(obj:0)
z0,3                                -1.88479299741678 	(obj:0)
a0,3                                0.131833892120109 	(obj:0)
z0,4                                 1.11203697029848 	(obj:0)
a0,4                                0.752502711433996 	(obj:0)
z0,5                                 2.06457435658147 	(obj:0)
a0,5                                 0.88740989447356 	(obj:0)
z0,6                                  2.0748789977537 	(obj:0)
a0,6                                0.888437559049025 	(obj:0)
z0,7                                -2.82390350694354 	(obj:0)
a0,7                               0.0560413668524654 	(obj:0)
z0,8                                 -1.3220610900004 	(obj:0)
a0,8                                0.210475757249202 	(obj:0)
z0,9                                   1.179841778353 	(obj:0)
a0,9                                0.764914520797027 	(obj:0)
z1,0                                -7.38001824738723 	(obj:0)
a1,0                             0.000625763783604235 	(obj:0)
z1,1                                 4.21838091886555 	(obj:0)
a1,1                                0.985482749709796 	(obj:-1)
z1,2                                 -2.9137839401603 	(obj:0)
a1,2                               0.0514712503187068 	(obj:0)
z1,3                                 -3.2477687749112 	(obj:0)
a1,3                               0.0374060250236271 	(obj:0)
z1,4                                -4.37945251108245 	(obj:0)
a1,4                               0.0123766583483114 	(obj:0)
z1,5                                -4.22420167701247 	(obj:0)
a1,5                               0.0144231612962438 	(obj:0)
z1,6                                -2.99189984348604 	(obj:0)
a1,6                                0.047793150368479 	(obj:0)
z1,7                                -2.91655477725911 	(obj:0)
a1,7                               0.0513459888750586 	(obj:1)
z1,8                                -3.50046195919021 	(obj:0)
a1,8                               0.0292983642967778 	(obj:0)
z1,9                                -4.27986349485229 	(obj:0)
a1,9                               0.0136541671641145 	(obj:0)
